Rh  C  O                                
   1.0000000000000000     
     5.3740115370177612    0.0000000000000000    0.0000000000000000
     2.6870057685088806    4.6540305112880374    0.0000000000000000
     0.0000000000000000    0.0000000000000000   43.1635861375234668
   Rh   C    O 
    28     1     1
Direct
  0.0000000000000000  0.0000000000000000  0.3475151474256251
  0.5000000000000000  0.0000000000000000  0.3475151474256251
  0.0000000000000000  0.5000000000000000  0.3475151474256251
  0.5000000000000000  0.5000000000000000  0.3475151474256251
  0.1666666666666643  0.1666666666666643  0.3983434316170786
  0.6666666666666643  0.1666666666666643  0.3983434316170786
  0.1666666666666643  0.6666666666666643  0.3983434316170786
  0.6666666666666643  0.6666666666666643  0.3983434316170786
  0.8333333333333357  0.3333333333333357  0.4491717158085393
  0.3333333333333357  0.3333333333333357  0.4491717158085393
  0.8333333333333357  0.8333333333333357  0.4491717158085393
  0.3333333333333357  0.8333333333333357  0.4491717158085393
  0.0000000000000000  0.0000000000000000  0.5000000000000000
  0.5000000000000000  0.0000000000000000  0.5000000000000000
  0.0000000000000000  0.5000000000000000  0.5000000000000000
  0.5000000000000000  0.5000000000000000  0.5000000000000000
  0.1666666666666643  0.1666666666666643  0.5508282841914607
  0.6666666666666643  0.1666666666666643  0.5508282841914607
  0.1666666666666643  0.6666666666666643  0.5508282841914607
  0.6666666666666643  0.6666666666666643  0.5508282841914607
  0.8333333333333357  0.3333333333333357  0.6016565683829214
  0.3333333333333357  0.3333333333333357  0.6016565683829214
  0.8333333333333357  0.8333333333333357  0.6016565683829214
  0.3333333333333357  0.8333333333333357  0.6016565683829214
  0.0000000000000000  0.0000000000000000  0.6524848525743749
  0.5000000000000000  0.0000000000000000  0.6524848525743749
  0.0000000000000000  0.5000000000000000  0.6524848525743749
  0.5000000000000000  0.5000000000000000  0.6524848525743749
  0.1666666666666643  0.1666666666666643  0.6802860643684312
  0.1666666666666643  0.1666666666666643  0.7069288923377286

  0.00000000E+00  0.00000000E+00  0.00000000E+00
  0.00000000E+00  0.00000000E+00  0.00000000E+00
  0.00000000E+00  0.00000000E+00  0.00000000E+00
  0.00000000E+00  0.00000000E+00  0.00000000E+00
  0.00000000E+00  0.00000000E+00  0.00000000E+00
  0.00000000E+00  0.00000000E+00  0.00000000E+00
  0.00000000E+00  0.00000000E+00  0.00000000E+00
  0.00000000E+00  0.00000000E+00  0.00000000E+00
  0.00000000E+00  0.00000000E+00  0.00000000E+00
  0.00000000E+00  0.00000000E+00  0.00000000E+00
  0.00000000E+00  0.00000000E+00  0.00000000E+00
  0.00000000E+00  0.00000000E+00  0.00000000E+00
  0.00000000E+00  0.00000000E+00  0.00000000E+00
  0.00000000E+00  0.00000000E+00  0.00000000E+00
  0.00000000E+00  0.00000000E+00  0.00000000E+00
  0.00000000E+00  0.00000000E+00  0.00000000E+00
  0.00000000E+00  0.00000000E+00  0.00000000E+00
  0.00000000E+00  0.00000000E+00  0.00000000E+00
  0.00000000E+00  0.00000000E+00  0.00000000E+00
  0.00000000E+00  0.00000000E+00  0.00000000E+00
  0.00000000E+00  0.00000000E+00  0.00000000E+00
  0.00000000E+00  0.00000000E+00  0.00000000E+00
  0.00000000E+00  0.00000000E+00  0.00000000E+00
  0.00000000E+00  0.00000000E+00  0.00000000E+00
  0.00000000E+00  0.00000000E+00  0.00000000E+00
  0.00000000E+00  0.00000000E+00  0.00000000E+00
  0.00000000E+00  0.00000000E+00  0.00000000E+00
  0.00000000E+00  0.00000000E+00  0.00000000E+00
  0.00000000E+00  0.00000000E+00  0.00000000E+00
  0.00000000E+00  0.00000000E+00  0.00000000E+00
