Rh 
 1.0000000000000000
     5.3740115370177612    0.0000000000000000    0.0000000000000000
     2.6870057685088806    4.6540305112880374    0.0000000000000000
     0.0000000000000000    0.0000000000000000   33.1635861375234668
 Rh 
  28
Cartesian
  0.0000000000000000  0.0000000000000000 10.0000000000000000
  2.6870057685088806  0.0000000000000000 10.0000000000000000
  1.3435028842544403  2.3270152556440187 10.0000000000000000
  4.0305086527633209  2.3270152556440187 10.0000000000000000
  1.3435028842544403  0.7756717518813395 12.1939310229205784
  4.0305086527633209  0.7756717518813395 12.1939310229205784
  2.6870057685088806  3.1026870075253581 12.1939310229205784
  5.3740115370177612  3.1026870075253581 12.1939310229205784
  0.0000000000000000  1.5513435037626790 14.3878620458411568
  2.6870057685088811  1.5513435037626790 14.3878620458411568
  1.3435028842544401  3.8783587594066975 14.3878620458411568
  4.0305086527633209  3.8783587594066975 14.3878620458411568
  0.0000000000000000  0.0000000000000000 16.5817930687617334
  2.6870057685088806  0.0000000000000000 16.5817930687617334
  1.3435028842544403  2.3270152556440187 16.5817930687617334
  4.0305086527633209  2.3270152556440187 16.5817930687617334
  1.3435028842544403  0.7756717518813395 18.7757240916823136
  4.0305086527633209  0.7756717518813395 18.7757240916823136
  2.6870057685088806  3.1026870075253581 18.7757240916823136
  5.3740115370177612  3.1026870075253581 18.7757240916823136
  0.0000000000000000  1.5513435037626790 20.9696551146028902
  2.6870057685088811  1.5513435037626790 20.9696551146028902
  1.3435028842544401  3.8783587594066975 20.9696551146028902
  4.0305086527633209  3.8783587594066975 20.9696551146028902
  0.0000000000000000  0.0000000000000000 23.1635861375234668
  2.6870057685088806  0.0000000000000000 23.1635861375234668
  1.3435028842544403  2.3270152556440187 23.1635861375234668
  4.0305086527633209  2.3270152556440187 23.1635861375234668
