Rh  C  O 
 1.0000000000000000
     5.3740115370177612    0.0000000000000000    0.0000000000000000
     2.6870057685088806    4.6540305112880374    0.0000000000000000
     0.0000000000000000    0.0000000000000000   43.1635861375234668
 Rh  C   O  
  28   1   1
Cartesian
  0.0000000000000000  0.0000000000000000 15.0000000000000000
  2.6870057685088806  0.0000000000000000 15.0000000000000000
  1.3435028842544403  2.3270152556440187 15.0000000000000000
  4.0305086527633209  2.3270152556440187 15.0000000000000000
  1.3435028842544403  0.7756717518813395 17.1939310229205766
  4.0305086527633209  0.7756717518813395 17.1939310229205766
  2.6870057685088806  3.1026870075253581 17.1939310229205766
  5.3740115370177612  3.1026870075253581 17.1939310229205766
  0.0000000000000000  1.5513435037626790 19.3878620458411568
  2.6870057685088811  1.5513435037626790 19.3878620458411568
  1.3435028842544401  3.8783587594066975 19.3878620458411568
  4.0305086527633209  3.8783587594066975 19.3878620458411568
  0.0000000000000000  0.0000000000000000 21.5817930687617334
  2.6870057685088806  0.0000000000000000 21.5817930687617334
  1.3435028842544403  2.3270152556440187 21.5817930687617334
  4.0305086527633209  2.3270152556440187 21.5817930687617334
  1.3435028842544403  0.7756717518813395 23.7757240916823136
  4.0305086527633209  0.7756717518813395 23.7757240916823136
  2.6870057685088806  3.1026870075253581 23.7757240916823136
  5.3740115370177612  3.1026870075253581 23.7757240916823136
  0.0000000000000000  1.5513435037626790 25.9696551146028902
  2.6870057685088811  1.5513435037626790 25.9696551146028902
  1.3435028842544401  3.8783587594066975 25.9696551146028902
  4.0305086527633209  3.8783587594066975 25.9696551146028902
  0.0000000000000000  0.0000000000000000 28.1635861375234668
  2.6870057685088806  0.0000000000000000 28.1635861375234668
  1.3435028842544403  2.3270152556440187 28.1635861375234668
  4.0305086527633209  2.3270152556440187 28.1635861375234668
  1.3435028842544403  0.7756717518813395 29.6635861375234668
  1.3435028842544403  0.7756717518813395 30.8135861375234654
