Rh  C  O                                
   1.00000000000000     
     5.4079526625147158    0.0000000000000000    0.0000000000000000
     2.7039763312573579    4.6834243882014359    0.0000000000000000
     0.0000000000000000    0.0000000000000000   43.2467245762867734
   Rh   C    O 
    28     1     1
Direct
 -0.0003016168249047 -0.0003016168249047  0.3479174021005517
  0.5006032336498091 -0.0003016168249047  0.3479174021005517
 -0.0003016168249047  0.5006032336498091  0.3479174021005517
  0.5000000000000000  0.5000000000000000  0.3480333938457467
  0.1666666666666643  0.1666666666666643  0.3977943713845555
  0.6666414149496240  0.1667171701007451  0.3980623683699919
  0.1667171701007451  0.6666414149496240  0.3980623683699919
  0.6666414149496240  0.6666414149496240  0.3980623683699919
  0.8335533098579074  0.3332233450710498  0.4486547532000272
  0.3332233450710498  0.3332233450710498  0.4486547532000272
  0.8333333333333357  0.8333333333333357  0.4486280404193754
  0.3332233450710498  0.8335533098579074  0.4486547532000272
 -0.0000552035280427 -0.0000552035280427  0.4999722027873512
  0.5001104070560853 -0.0000552035280427  0.4999722027873512
 -0.0000552035280427  0.5001104070560853  0.4999722027873512
  0.5000000000000000  0.5000000000000000  0.5002114938182437
  0.1666666666666643  0.1666666666666643  0.5513222328012366
  0.6662212744545877  0.1675574510908178  0.5511824932381159
  0.1675574510908178  0.6662212744545877  0.5511824932381159
  0.6662212744545877  0.6662212744545877  0.5511824932381159
  0.8333531760135958  0.3333234119932056  0.6020376677119932
  0.3333234119932056  0.3333234119932056  0.6020376677119932
  0.8333333333333357  0.8333333333333357  0.6012011720461580
  0.3333234119932056  0.8333531760135958  0.6020376677119932
 -0.0013290414264466 -0.0013290414264466  0.6535345470441088
  0.5026580828528934 -0.0013290414264466  0.6535345470441088
 -0.0013290414264466  0.5026580828528934  0.6535345470441088
  0.5000000000000000  0.5000000000000000  0.6518740609945601
  0.1666666666666643  0.1666666666666643  0.6856553924657567
  0.1666666666666643  0.1666666666666643  0.7132311784830774
 
  0.00000000E+00  0.00000000E+00  0.00000000E+00
  0.00000000E+00  0.00000000E+00  0.00000000E+00
  0.00000000E+00  0.00000000E+00  0.00000000E+00
  0.00000000E+00  0.00000000E+00  0.00000000E+00
  0.00000000E+00  0.00000000E+00  0.00000000E+00
  0.00000000E+00  0.00000000E+00  0.00000000E+00
  0.00000000E+00  0.00000000E+00  0.00000000E+00
  0.00000000E+00  0.00000000E+00  0.00000000E+00
  0.00000000E+00  0.00000000E+00  0.00000000E+00
  0.00000000E+00  0.00000000E+00  0.00000000E+00
  0.00000000E+00  0.00000000E+00  0.00000000E+00
  0.00000000E+00  0.00000000E+00  0.00000000E+00
  0.00000000E+00  0.00000000E+00  0.00000000E+00
  0.00000000E+00  0.00000000E+00  0.00000000E+00
  0.00000000E+00  0.00000000E+00  0.00000000E+00
  0.00000000E+00  0.00000000E+00  0.00000000E+00
  0.00000000E+00  0.00000000E+00  0.00000000E+00
  0.00000000E+00  0.00000000E+00  0.00000000E+00
  0.00000000E+00  0.00000000E+00  0.00000000E+00
  0.00000000E+00  0.00000000E+00  0.00000000E+00
  0.00000000E+00  0.00000000E+00  0.00000000E+00
  0.00000000E+00  0.00000000E+00  0.00000000E+00
  0.00000000E+00  0.00000000E+00  0.00000000E+00
  0.00000000E+00  0.00000000E+00  0.00000000E+00
  0.00000000E+00  0.00000000E+00  0.00000000E+00
  0.00000000E+00  0.00000000E+00  0.00000000E+00
  0.00000000E+00  0.00000000E+00  0.00000000E+00
  0.00000000E+00  0.00000000E+00  0.00000000E+00
  0.00000000E+00  0.00000000E+00  0.00000000E+00
  0.00000000E+00  0.00000000E+00  0.00000000E+00
